; benchmark generated from python API
(set-info :status unknown)
(declare-fun cell_1_1 () Int)
(declare-fun cell_1_2 () Int)
(declare-fun cell_1_3 () Int)
(declare-fun cell_1_4 () Int)
(declare-fun cell_2_1 () Int)
(declare-fun cell_3_1 () Int)
(declare-fun cell_4_1 () Int)
(declare-fun cell_5_1 () Int)
(declare-fun cell_6_1 () Int)
(declare-fun cell_7_1 () Int)
(declare-fun cell_8_1 () Int)
(declare-fun cell_9_1 () Int)
(declare-fun cell_2_2 () Int)
(declare-fun cell_3_2 () Int)
(declare-fun cell_4_2 () Int)
(declare-fun cell_5_2 () Int)
(declare-fun cell_6_2 () Int)
(declare-fun cell_7_2 () Int)
(declare-fun cell_8_2 () Int)
(declare-fun cell_9_2 () Int)
(declare-fun cell_2_3 () Int)
(declare-fun cell_3_3 () Int)
(declare-fun cell_4_3 () Int)
(declare-fun cell_5_3 () Int)
(declare-fun cell_6_3 () Int)
(declare-fun cell_7_3 () Int)
(declare-fun cell_8_3 () Int)
(declare-fun cell_9_3 () Int)
(declare-fun cell_2_4 () Int)
(declare-fun cell_3_4 () Int)
(declare-fun cell_4_4 () Int)
(declare-fun cell_5_4 () Int)
(declare-fun cell_6_4 () Int)
(declare-fun cell_7_4 () Int)
(declare-fun cell_8_4 () Int)
(declare-fun cell_9_4 () Int)
(declare-fun cell_1_5 () Int)
(declare-fun cell_2_5 () Int)
(declare-fun cell_3_5 () Int)
(declare-fun cell_4_5 () Int)
(declare-fun cell_5_5 () Int)
(declare-fun cell_6_5 () Int)
(declare-fun cell_7_5 () Int)
(declare-fun cell_8_5 () Int)
(declare-fun cell_9_5 () Int)
(declare-fun cell_1_6 () Int)
(declare-fun cell_2_6 () Int)
(declare-fun cell_3_6 () Int)
(declare-fun cell_4_6 () Int)
(declare-fun cell_5_6 () Int)
(declare-fun cell_6_6 () Int)
(declare-fun cell_7_6 () Int)
(declare-fun cell_8_6 () Int)
(declare-fun cell_9_6 () Int)
(declare-fun cell_1_7 () Int)
(declare-fun cell_2_7 () Int)
(declare-fun cell_3_7 () Int)
(declare-fun cell_4_7 () Int)
(declare-fun cell_5_7 () Int)
(declare-fun cell_6_7 () Int)
(declare-fun cell_7_7 () Int)
(declare-fun cell_8_7 () Int)
(declare-fun cell_9_7 () Int)
(declare-fun cell_1_8 () Int)
(declare-fun cell_2_8 () Int)
(declare-fun cell_3_8 () Int)
(declare-fun cell_4_8 () Int)
(declare-fun cell_5_8 () Int)
(declare-fun cell_6_8 () Int)
(declare-fun cell_7_8 () Int)
(declare-fun cell_8_8 () Int)
(declare-fun cell_9_8 () Int)
(declare-fun cell_1_9 () Int)
(declare-fun cell_2_9 () Int)
(declare-fun cell_3_9 () Int)
(declare-fun cell_4_9 () Int)
(declare-fun cell_5_9 () Int)
(declare-fun cell_6_9 () Int)
(declare-fun cell_7_9 () Int)
(declare-fun cell_8_9 () Int)
(declare-fun cell_9_9 () Int)
(assert
 (= cell_1_1 2))
(assert
 (= cell_1_2 7))
(assert
 (= cell_1_3 6))
(assert
 (= cell_1_4 4))
(assert
 (let (($x648 (= cell_1_1 2)))
 (or (= cell_1_1 1) $x648 (= cell_1_1 3) (= cell_1_1 4) (= cell_1_1 5) (= cell_1_1 6) (= cell_1_1 7) (= cell_1_1 8) (= cell_1_1 9))))
(assert
 (let (($x1844 (= cell_2_1 7)))
 (let (($x2480 (= cell_2_1 6)))
 (let (($x2949 (= cell_2_1 2)))
 (or (= cell_2_1 1) $x2949 (= cell_2_1 3) (= cell_2_1 4) (= cell_2_1 5) $x2480 $x1844 (= cell_2_1 8) (= cell_2_1 9))))))
(assert
 (let (($x1793 (= cell_3_1 7)))
 (let (($x1796 (= cell_3_1 6)))
 (let (($x2699 (= cell_3_1 2)))
 (or (= cell_3_1 1) $x2699 (= cell_3_1 3) (= cell_3_1 4) (= cell_3_1 5) $x1796 $x1793 (= cell_3_1 8) (= cell_3_1 9))))))
(assert
 (let (($x2495 (= cell_4_1 2)))
 (or (= cell_4_1 1) $x2495 (= cell_4_1 3) (= cell_4_1 4) (= cell_4_1 5) (= cell_4_1 6) (= cell_4_1 7) (= cell_4_1 8) (= cell_4_1 9))))
(assert
 (let (($x3558 (= cell_5_1 2)))
 (or (= cell_5_1 1) $x3558 (= cell_5_1 3) (= cell_5_1 4) (= cell_5_1 5) (= cell_5_1 6) (= cell_5_1 7) (= cell_5_1 8) (= cell_5_1 9))))
(assert
 (let (($x961 (= cell_6_1 2)))
 (or (= cell_6_1 1) $x961 (= cell_6_1 3) (= cell_6_1 4) (= cell_6_1 5) (= cell_6_1 6) (= cell_6_1 7) (= cell_6_1 8) (= cell_6_1 9))))
(assert
 (let (($x1311 (= cell_7_1 2)))
 (or (= cell_7_1 1) $x1311 (= cell_7_1 3) (= cell_7_1 4) (= cell_7_1 5) (= cell_7_1 6) (= cell_7_1 7) (= cell_7_1 8) (= cell_7_1 9))))
(assert
 (let (($x1150 (= cell_8_1 2)))
 (or (= cell_8_1 1) $x1150 (= cell_8_1 3) (= cell_8_1 4) (= cell_8_1 5) (= cell_8_1 6) (= cell_8_1 7) (= cell_8_1 8) (= cell_8_1 9))))
(assert
 (let (($x1498 (= cell_9_1 2)))
 (or (= cell_9_1 1) $x1498 (= cell_9_1 3) (= cell_9_1 4) (= cell_9_1 5) (= cell_9_1 6) (= cell_9_1 7) (= cell_9_1 8) (= cell_9_1 9))))
(assert
 (let (($x2683 (= cell_1_2 7)))
 (or (= cell_1_2 1) (= cell_1_2 2) (= cell_1_2 3) (= cell_1_2 4) (= cell_1_2 5) (= cell_1_2 6) $x2683 (= cell_1_2 8) (= cell_1_2 9))))
(assert
 (let (($x1470 (= cell_2_2 7)))
 (let (($x1361 (= cell_2_2 6)))
 (let (($x4009 (= cell_2_2 2)))
 (or (= cell_2_2 1) $x4009 (= cell_2_2 3) (= cell_2_2 4) (= cell_2_2 5) $x1361 $x1470 (= cell_2_2 8) (= cell_2_2 9))))))
(assert
 (let (($x1780 (= cell_3_2 7)))
 (let (($x2779 (= cell_3_2 6)))
 (let (($x1977 (= cell_3_2 2)))
 (or (= cell_3_2 1) $x1977 (= cell_3_2 3) (= cell_3_2 4) (= cell_3_2 5) $x2779 $x1780 (= cell_3_2 8) (= cell_3_2 9))))))
(assert
 (let (($x2305 (= cell_4_2 7)))
 (or (= cell_4_2 1) (= cell_4_2 2) (= cell_4_2 3) (= cell_4_2 4) (= cell_4_2 5) (= cell_4_2 6) $x2305 (= cell_4_2 8) (= cell_4_2 9))))
(assert
 (let (($x2425 (= cell_5_2 7)))
 (or (= cell_5_2 1) (= cell_5_2 2) (= cell_5_2 3) (= cell_5_2 4) (= cell_5_2 5) (= cell_5_2 6) $x2425 (= cell_5_2 8) (= cell_5_2 9))))
(assert
 (let (($x985 (= cell_6_2 7)))
 (or (= cell_6_2 1) (= cell_6_2 2) (= cell_6_2 3) (= cell_6_2 4) (= cell_6_2 5) (= cell_6_2 6) $x985 (= cell_6_2 8) (= cell_6_2 9))))
(assert
 (let (($x1621 (= cell_7_2 7)))
 (or (= cell_7_2 1) (= cell_7_2 2) (= cell_7_2 3) (= cell_7_2 4) (= cell_7_2 5) (= cell_7_2 6) $x1621 (= cell_7_2 8) (= cell_7_2 9))))
(assert
 (let (($x2227 (= cell_8_2 7)))
 (or (= cell_8_2 1) (= cell_8_2 2) (= cell_8_2 3) (= cell_8_2 4) (= cell_8_2 5) (= cell_8_2 6) $x2227 (= cell_8_2 8) (= cell_8_2 9))))
(assert
 (let (($x1453 (= cell_9_2 7)))
 (or (= cell_9_2 1) (= cell_9_2 2) (= cell_9_2 3) (= cell_9_2 4) (= cell_9_2 5) (= cell_9_2 6) $x1453 (= cell_9_2 8) (= cell_9_2 9))))
(assert
 (let (($x2348 (= cell_1_3 6)))
 (or (= cell_1_3 1) (= cell_1_3 2) (= cell_1_3 3) (= cell_1_3 4) (= cell_1_3 5) $x2348 (= cell_1_3 7) (= cell_1_3 8) (= cell_1_3 9))))
(assert
 (let (($x1831 (= cell_2_3 7)))
 (let (($x2514 (= cell_2_3 6)))
 (let (($x1112 (= cell_2_3 2)))
 (or (= cell_2_3 1) $x1112 (= cell_2_3 3) (= cell_2_3 4) (= cell_2_3 5) $x2514 $x1831 (= cell_2_3 8) (= cell_2_3 9))))))
(assert
 (let (($x4139 (= cell_3_3 7)))
 (let (($x348 (= cell_3_3 6)))
 (let (($x526 (= cell_3_3 2)))
 (or (= cell_3_3 1) $x526 (= cell_3_3 3) (= cell_3_3 4) (= cell_3_3 5) $x348 $x4139 (= cell_3_3 8) (= cell_3_3 9))))))
(assert
 (let (($x1122 (= cell_4_3 6)))
 (or (= cell_4_3 1) (= cell_4_3 2) (= cell_4_3 3) (= cell_4_3 4) (= cell_4_3 5) $x1122 (= cell_4_3 7) (= cell_4_3 8) (= cell_4_3 9))))
(assert
 (let (($x4507 (= cell_5_3 6)))
 (or (= cell_5_3 1) (= cell_5_3 2) (= cell_5_3 3) (= cell_5_3 4) (= cell_5_3 5) $x4507 (= cell_5_3 7) (= cell_5_3 8) (= cell_5_3 9))))
(assert
 (let (($x1091 (= cell_6_3 6)))
 (or (= cell_6_3 1) (= cell_6_3 2) (= cell_6_3 3) (= cell_6_3 4) (= cell_6_3 5) $x1091 (= cell_6_3 7) (= cell_6_3 8) (= cell_6_3 9))))
(assert
 (let (($x554 (= cell_7_3 6)))
 (or (= cell_7_3 1) (= cell_7_3 2) (= cell_7_3 3) (= cell_7_3 4) (= cell_7_3 5) $x554 (= cell_7_3 7) (= cell_7_3 8) (= cell_7_3 9))))
(assert
 (let (($x480 (= cell_8_3 6)))
 (or (= cell_8_3 1) (= cell_8_3 2) (= cell_8_3 3) (= cell_8_3 4) (= cell_8_3 5) $x480 (= cell_8_3 7) (= cell_8_3 8) (= cell_8_3 9))))
(assert
 (let (($x3445 (= cell_9_3 6)))
 (or (= cell_9_3 1) (= cell_9_3 2) (= cell_9_3 3) (= cell_9_3 4) (= cell_9_3 5) $x3445 (= cell_9_3 7) (= cell_9_3 8) (= cell_9_3 9))))
(assert
 (let (($x3046 (= cell_1_4 4)))
 (or (= cell_1_4 1) (= cell_1_4 2) (= cell_1_4 3) $x3046 (= cell_1_4 5) (= cell_1_4 6) (= cell_1_4 7) (= cell_1_4 8) (= cell_1_4 9))))
(assert
 (let (($x6669 (= cell_2_4 4)))
 (or (= cell_2_4 1) (= cell_2_4 2) (= cell_2_4 3) $x6669 (= cell_2_4 5) (= cell_2_4 6) (= cell_2_4 7) (= cell_2_4 8) (= cell_2_4 9))))
(assert
 (let (($x2020 (= cell_3_4 7)))
 (let (($x2378 (= cell_3_4 4)))
 (or (= cell_3_4 1) (= cell_3_4 2) (= cell_3_4 3) $x2378 (= cell_3_4 5) (= cell_3_4 6) $x2020 (= cell_3_4 8) (= cell_3_4 9)))))
(assert
 (let (($x2902 (= cell_4_4 4)))
 (or (= cell_4_4 1) (= cell_4_4 2) (= cell_4_4 3) $x2902 (= cell_4_4 5) (= cell_4_4 6) (= cell_4_4 7) (= cell_4_4 8) (= cell_4_4 9))))
(assert
 (let (($x1859 (= cell_5_4 4)))
 (or (= cell_5_4 1) (= cell_5_4 2) (= cell_5_4 3) $x1859 (= cell_5_4 5) (= cell_5_4 6) (= cell_5_4 7) (= cell_5_4 8) (= cell_5_4 9))))
(assert
 (let (($x67 (= cell_6_4 4)))
 (or (= cell_6_4 1) (= cell_6_4 2) (= cell_6_4 3) $x67 (= cell_6_4 5) (= cell_6_4 6) (= cell_6_4 7) (= cell_6_4 8) (= cell_6_4 9))))
(assert
 (let (($x1724 (= cell_7_4 4)))
 (or (= cell_7_4 1) (= cell_7_4 2) (= cell_7_4 3) $x1724 (= cell_7_4 5) (= cell_7_4 6) (= cell_7_4 7) (= cell_7_4 8) (= cell_7_4 9))))
(assert
 (let (($x1739 (= cell_8_4 4)))
 (or (= cell_8_4 1) (= cell_8_4 2) (= cell_8_4 3) $x1739 (= cell_8_4 5) (= cell_8_4 6) (= cell_8_4 7) (= cell_8_4 8) (= cell_8_4 9))))
(assert
 (let (($x1130 (= cell_9_4 4)))
 (or (= cell_9_4 1) (= cell_9_4 2) (= cell_9_4 3) $x1130 (= cell_9_4 5) (= cell_9_4 6) (= cell_9_4 7) (= cell_9_4 8) (= cell_9_4 9))))
(assert
 (let (($x4450 (= cell_1_5 9)))
 (let (($x1824 (= cell_1_5 7)))
 (let (($x2757 (= cell_1_5 6)))
 (let (($x2793 (= cell_1_5 4)))
 (let (($x1890 (= cell_1_5 2)))
 (or (= cell_1_5 1) $x1890 (= cell_1_5 3) $x2793 (= cell_1_5 5) $x2757 $x1824 (= cell_1_5 8) $x4450)))))))
(assert
 (let (($x8316 (= cell_2_5 4)))
 (or (= cell_2_5 1) (= cell_2_5 2) (= cell_2_5 3) $x8316 (= cell_2_5 5) (= cell_2_5 6) (= cell_2_5 7) (= cell_2_5 8) (= cell_2_5 9))))
(assert
 (let (($x62 (= cell_3_5 4)))
 (or (= cell_3_5 1) (= cell_3_5 2) (= cell_3_5 3) $x62 (= cell_3_5 5) (= cell_3_5 6) (= cell_3_5 7) (= cell_3_5 8) (= cell_3_5 9))))
(assert
 (let (($x2498 (= cell_4_5 7)))
 (or (= cell_4_5 1) (= cell_4_5 2) (= cell_4_5 3) (= cell_4_5 4) (= cell_4_5 5) (= cell_4_5 6) $x2498 (= cell_4_5 8) (= cell_4_5 9))))
(assert
 (or (= cell_5_5 1) (= cell_5_5 2) (= cell_5_5 3) (= cell_5_5 4) (= cell_5_5 5) (= cell_5_5 6) (= cell_5_5 7) (= cell_5_5 8) (= cell_5_5 9)))
(assert
 (or (= cell_6_5 1) (= cell_6_5 2) (= cell_6_5 3) (= cell_6_5 4) (= cell_6_5 5) (= cell_6_5 6) (= cell_6_5 7) (= cell_6_5 8) (= cell_6_5 9)))
(assert
 (or (= cell_7_5 1) (= cell_7_5 2) (= cell_7_5 3) (= cell_7_5 4) (= cell_7_5 5) (= cell_7_5 6) (= cell_7_5 7) (= cell_7_5 8) (= cell_7_5 9)))
(assert
 (or (= cell_8_5 1) (= cell_8_5 2) (= cell_8_5 3) (= cell_8_5 4) (= cell_8_5 5) (= cell_8_5 6) (= cell_8_5 7) (= cell_8_5 8) (= cell_8_5 9)))
(assert
 (or (= cell_9_5 1) (= cell_9_5 2) (= cell_9_5 3) (= cell_9_5 4) (= cell_9_5 5) (= cell_9_5 6) (= cell_9_5 7) (= cell_9_5 8) (= cell_9_5 9)))
(assert
 (let (($x1677 (= cell_1_6 7)))
 (let (($x4230 (= cell_1_6 6)))
 (let (($x1162 (= cell_1_6 4)))
 (let (($x2592 (= cell_1_6 2)))
 (or (= cell_1_6 1) $x2592 (= cell_1_6 3) $x1162 (= cell_1_6 5) $x4230 $x1677 (= cell_1_6 8) (= cell_1_6 9)))))))
(assert
 (let (($x3434 (= cell_2_6 4)))
 (or (= cell_2_6 1) (= cell_2_6 2) (= cell_2_6 3) $x3434 (= cell_2_6 5) (= cell_2_6 6) (= cell_2_6 7) (= cell_2_6 8) (= cell_2_6 9))))
(assert
 (let (($x3117 (= cell_3_6 4)))
 (or (= cell_3_6 1) (= cell_3_6 2) (= cell_3_6 3) $x3117 (= cell_3_6 5) (= cell_3_6 6) (= cell_3_6 7) (= cell_3_6 8) (= cell_3_6 9))))
(assert
 (or (= cell_4_6 1) (= cell_4_6 2) (= cell_4_6 3) (= cell_4_6 4) (= cell_4_6 5) (= cell_4_6 6) (= cell_4_6 7) (= cell_4_6 8) (= cell_4_6 9)))
(assert
 (let (($x3904 (= cell_5_6 7)))
 (or (= cell_5_6 1) (= cell_5_6 2) (= cell_5_6 3) (= cell_5_6 4) (= cell_5_6 5) (= cell_5_6 6) $x3904 (= cell_5_6 8) (= cell_5_6 9))))
(assert
 (or (= cell_6_6 1) (= cell_6_6 2) (= cell_6_6 3) (= cell_6_6 4) (= cell_6_6 5) (= cell_6_6 6) (= cell_6_6 7) (= cell_6_6 8) (= cell_6_6 9)))
(assert
 (or (= cell_7_6 1) (= cell_7_6 2) (= cell_7_6 3) (= cell_7_6 4) (= cell_7_6 5) (= cell_7_6 6) (= cell_7_6 7) (= cell_7_6 8) (= cell_7_6 9)))
(assert
 (or (= cell_8_6 1) (= cell_8_6 2) (= cell_8_6 3) (= cell_8_6 4) (= cell_8_6 5) (= cell_8_6 6) (= cell_8_6 7) (= cell_8_6 8) (= cell_8_6 9)))
(assert
 (or (= cell_9_6 1) (= cell_9_6 2) (= cell_9_6 3) (= cell_9_6 4) (= cell_9_6 5) (= cell_9_6 6) (= cell_9_6 7) (= cell_9_6 8) (= cell_9_6 9)))
(assert
 (let (($x636 (= cell_1_7 7)))
 (let (($x922 (= cell_1_7 6)))
 (let (($x88 (= cell_1_7 4)))
 (let (($x1342 (= cell_1_7 2)))
 (or (= cell_1_7 1) $x1342 (= cell_1_7 3) $x88 (= cell_1_7 5) $x922 $x636 (= cell_1_7 8) (= cell_1_7 9)))))))
(assert
 (or (= cell_2_7 1) (= cell_2_7 2) (= cell_2_7 3) (= cell_2_7 4) (= cell_2_7 5) (= cell_2_7 6) (= cell_2_7 7) (= cell_2_7 8) (= cell_2_7 9)))
(assert
 (or (= cell_3_7 1) (= cell_3_7 2) (= cell_3_7 3) (= cell_3_7 4) (= cell_3_7 5) (= cell_3_7 6) (= cell_3_7 7) (= cell_3_7 8) (= cell_3_7 9)))
(assert
 (or (= cell_4_7 1) (= cell_4_7 2) (= cell_4_7 3) (= cell_4_7 4) (= cell_4_7 5) (= cell_4_7 6) (= cell_4_7 7) (= cell_4_7 8) (= cell_4_7 9)))
(assert
 (or (= cell_5_7 1) (= cell_5_7 2) (= cell_5_7 3) (= cell_5_7 4) (= cell_5_7 5) (= cell_5_7 6) (= cell_5_7 7) (= cell_5_7 8) (= cell_5_7 9)))
(assert
 (let (($x1071 (= cell_6_7 7)))
 (or (= cell_6_7 1) (= cell_6_7 2) (= cell_6_7 3) (= cell_6_7 4) (= cell_6_7 5) (= cell_6_7 6) $x1071 (= cell_6_7 8) (= cell_6_7 9))))
(assert
 (or (= cell_7_7 1) (= cell_7_7 2) (= cell_7_7 3) (= cell_7_7 4) (= cell_7_7 5) (= cell_7_7 6) (= cell_7_7 7) (= cell_7_7 8) (= cell_7_7 9)))
(assert
 (or (= cell_8_7 1) (= cell_8_7 2) (= cell_8_7 3) (= cell_8_7 4) (= cell_8_7 5) (= cell_8_7 6) (= cell_8_7 7) (= cell_8_7 8) (= cell_8_7 9)))
(assert
 (or (= cell_9_7 1) (= cell_9_7 2) (= cell_9_7 3) (= cell_9_7 4) (= cell_9_7 5) (= cell_9_7 6) (= cell_9_7 7) (= cell_9_7 8) (= cell_9_7 9)))
(assert
 (let (($x1211 (= cell_1_8 7)))
 (let (($x2786 (= cell_1_8 6)))
 (let (($x1474 (= cell_1_8 4)))
 (let (($x8146 (= cell_1_8 2)))
 (or (= cell_1_8 1) $x8146 (= cell_1_8 3) $x1474 (= cell_1_8 5) $x2786 $x1211 (= cell_1_8 8) (= cell_1_8 9)))))))
(assert
 (or (= cell_2_8 1) (= cell_2_8 2) (= cell_2_8 3) (= cell_2_8 4) (= cell_2_8 5) (= cell_2_8 6) (= cell_2_8 7) (= cell_2_8 8) (= cell_2_8 9)))
(assert
 (or (= cell_3_8 1) (= cell_3_8 2) (= cell_3_8 3) (= cell_3_8 4) (= cell_3_8 5) (= cell_3_8 6) (= cell_3_8 7) (= cell_3_8 8) (= cell_3_8 9)))
(assert
 (or (= cell_4_8 1) (= cell_4_8 2) (= cell_4_8 3) (= cell_4_8 4) (= cell_4_8 5) (= cell_4_8 6) (= cell_4_8 7) (= cell_4_8 8) (= cell_4_8 9)))
(assert
 (or (= cell_5_8 1) (= cell_5_8 2) (= cell_5_8 3) (= cell_5_8 4) (= cell_5_8 5) (= cell_5_8 6) (= cell_5_8 7) (= cell_5_8 8) (= cell_5_8 9)))
(assert
 (or (= cell_6_8 1) (= cell_6_8 2) (= cell_6_8 3) (= cell_6_8 4) (= cell_6_8 5) (= cell_6_8 6) (= cell_6_8 7) (= cell_6_8 8) (= cell_6_8 9)))
(assert
 (let (($x3204 (= cell_7_8 7)))
 (or (= cell_7_8 1) (= cell_7_8 2) (= cell_7_8 3) (= cell_7_8 4) (= cell_7_8 5) (= cell_7_8 6) $x3204 (= cell_7_8 8) (= cell_7_8 9))))
(assert
 (or (= cell_8_8 1) (= cell_8_8 2) (= cell_8_8 3) (= cell_8_8 4) (= cell_8_8 5) (= cell_8_8 6) (= cell_8_8 7) (= cell_8_8 8) (= cell_8_8 9)))
(assert
 (or (= cell_9_8 1) (= cell_9_8 2) (= cell_9_8 3) (= cell_9_8 4) (= cell_9_8 5) (= cell_9_8 6) (= cell_9_8 7) (= cell_9_8 8) (= cell_9_8 9)))
(assert
 (let (($x2821 (= cell_1_9 7)))
 (let (($x158 (= cell_1_9 6)))
 (let (($x1376 (= cell_1_9 4)))
 (let (($x1680 (= cell_1_9 2)))
 (or (= cell_1_9 1) $x1680 (= cell_1_9 3) $x1376 (= cell_1_9 5) $x158 $x2821 (= cell_1_9 8) (= cell_1_9 9)))))))
(assert
 (or (= cell_2_9 1) (= cell_2_9 2) (= cell_2_9 3) (= cell_2_9 4) (= cell_2_9 5) (= cell_2_9 6) (= cell_2_9 7) (= cell_2_9 8) (= cell_2_9 9)))
(assert
 (or (= cell_3_9 1) (= cell_3_9 2) (= cell_3_9 3) (= cell_3_9 4) (= cell_3_9 5) (= cell_3_9 6) (= cell_3_9 7) (= cell_3_9 8) (= cell_3_9 9)))
(assert
 (or (= cell_4_9 1) (= cell_4_9 2) (= cell_4_9 3) (= cell_4_9 4) (= cell_4_9 5) (= cell_4_9 6) (= cell_4_9 7) (= cell_4_9 8) (= cell_4_9 9)))
(assert
 (or (= cell_5_9 1) (= cell_5_9 2) (= cell_5_9 3) (= cell_5_9 4) (= cell_5_9 5) (= cell_5_9 6) (= cell_5_9 7) (= cell_5_9 8) (= cell_5_9 9)))
(assert
 (or (= cell_6_9 1) (= cell_6_9 2) (= cell_6_9 3) (= cell_6_9 4) (= cell_6_9 5) (= cell_6_9 6) (= cell_6_9 7) (= cell_6_9 8) (= cell_6_9 9)))
(assert
 (or (= cell_7_9 1) (= cell_7_9 2) (= cell_7_9 3) (= cell_7_9 4) (= cell_7_9 5) (= cell_7_9 6) (= cell_7_9 7) (= cell_7_9 8) (= cell_7_9 9)))
(assert
 (let (($x2790 (= cell_8_9 7)))
 (or (= cell_8_9 1) (= cell_8_9 2) (= cell_8_9 3) (= cell_8_9 4) (= cell_8_9 5) (= cell_8_9 6) $x2790 (= cell_8_9 8) (= cell_8_9 9))))
(assert
 (or (= cell_9_9 1) (= cell_9_9 2) (= cell_9_9 3) (= cell_9_9 4) (= cell_9_9 5) (= cell_9_9 6) (= cell_9_9 7) (= cell_9_9 8) (= cell_9_9 9)))
(assert
 (and (distinct cell_1_1 cell_1_2 cell_1_3 cell_1_4 cell_1_5 cell_1_6 cell_1_7 cell_1_8 cell_1_9) true))
(assert
 (and (distinct cell_2_1 cell_2_2 cell_2_3 cell_2_4 cell_2_5 cell_2_6 cell_2_7 cell_2_8 cell_2_9) true))
(assert
 (and (distinct cell_3_1 cell_3_2 cell_3_3 cell_3_4 cell_3_5 cell_3_6 cell_3_7 cell_3_8 cell_3_9) true))
(assert
 (and (distinct cell_4_1 cell_4_2 cell_4_3 cell_4_4 cell_4_5 cell_4_6 cell_4_7 cell_4_8 cell_4_9) true))
(assert
 (and (distinct cell_5_1 cell_5_2 cell_5_3 cell_5_4 cell_5_5 cell_5_6 cell_5_7 cell_5_8 cell_5_9) true))
(assert
 (and (distinct cell_6_1 cell_6_2 cell_6_3 cell_6_4 cell_6_5 cell_6_6 cell_6_7 cell_6_8 cell_6_9) true))
(assert
 (and (distinct cell_7_1 cell_7_2 cell_7_3 cell_7_4 cell_7_5 cell_7_6 cell_7_7 cell_7_8 cell_7_9) true))
(assert
 (and (distinct cell_8_1 cell_8_2 cell_8_3 cell_8_4 cell_8_5 cell_8_6 cell_8_7 cell_8_8 cell_8_9) true))
(assert
 (and (distinct cell_9_1 cell_9_2 cell_9_3 cell_9_4 cell_9_5 cell_9_6 cell_9_7 cell_9_8 cell_9_9) true))
(assert
 (and (distinct cell_1_1 cell_2_1 cell_3_1 cell_4_1 cell_5_1 cell_6_1 cell_7_1 cell_8_1 cell_9_1) true))
(assert
 (and (distinct cell_1_2 cell_2_2 cell_3_2 cell_4_2 cell_5_2 cell_6_2 cell_7_2 cell_8_2 cell_9_2) true))
(assert
 (and (distinct cell_1_3 cell_2_3 cell_3_3 cell_4_3 cell_5_3 cell_6_3 cell_7_3 cell_8_3 cell_9_3) true))
(assert
 (and (distinct cell_1_4 cell_2_4 cell_3_4 cell_4_4 cell_5_4 cell_6_4 cell_7_4 cell_8_4 cell_9_4) true))
(assert
 (and (distinct cell_1_5 cell_2_5 cell_3_5 cell_4_5 cell_5_5 cell_6_5 cell_7_5 cell_8_5 cell_9_5) true))
(assert
 (and (distinct cell_1_6 cell_2_6 cell_3_6 cell_4_6 cell_5_6 cell_6_6 cell_7_6 cell_8_6 cell_9_6) true))
(assert
 (and (distinct cell_1_7 cell_2_7 cell_3_7 cell_4_7 cell_5_7 cell_6_7 cell_7_7 cell_8_7 cell_9_7) true))
(assert
 (and (distinct cell_1_8 cell_2_8 cell_3_8 cell_4_8 cell_5_8 cell_6_8 cell_7_8 cell_8_8 cell_9_8) true))
(assert
 (and (distinct cell_1_9 cell_2_9 cell_3_9 cell_4_9 cell_5_9 cell_6_9 cell_7_9 cell_8_9 cell_9_9) true))
(assert
 (and (distinct cell_1_1 cell_1_2 cell_1_3 cell_2_1 cell_2_2 cell_2_3 cell_3_1 cell_3_2 cell_3_3) true))
(assert
 (and (distinct cell_1_4 cell_1_5 cell_1_6 cell_2_4 cell_2_5 cell_2_6 cell_3_4 cell_3_5 cell_3_6) true))
(assert
 (and (distinct cell_1_7 cell_1_8 cell_1_9 cell_2_7 cell_2_8 cell_2_9 cell_3_7 cell_3_8 cell_3_9) true))
(assert
 (and (distinct cell_4_1 cell_4_2 cell_4_3 cell_5_1 cell_5_2 cell_5_3 cell_6_1 cell_6_2 cell_6_3) true))
(assert
 (and (distinct cell_4_4 cell_4_5 cell_4_6 cell_5_4 cell_5_5 cell_5_6 cell_6_4 cell_6_5 cell_6_6) true))
(assert
 (and (distinct cell_4_7 cell_4_8 cell_4_9 cell_5_7 cell_5_8 cell_5_9 cell_6_7 cell_6_8 cell_6_9) true))
(assert
 (and (distinct cell_7_1 cell_7_2 cell_7_3 cell_8_1 cell_8_2 cell_8_3 cell_9_1 cell_9_2 cell_9_3) true))
(assert
 (and (distinct cell_7_4 cell_7_5 cell_7_6 cell_8_4 cell_8_5 cell_8_6 cell_9_4 cell_9_5 cell_9_6) true))
(assert
 (and (distinct cell_7_7 cell_7_8 cell_7_9 cell_8_7 cell_8_8 cell_8_9 cell_9_7 cell_9_8 cell_9_9) true))
(assert
 (let (($x1952 (and (distinct cell_5_9 cell_6_8 cell_7_7 cell_8_6) true)))
 (let (($x2670 (and (distinct cell_2_9 cell_3_8 cell_4_7 cell_5_6 cell_6_5 cell_7_4 cell_8_3 cell_9_2) true)))
 (let (($x992 (and (distinct cell_1_8 cell_2_7 cell_3_6 cell_4_5 cell_5_4 cell_6_3 cell_7_2 cell_8_1) true)))
 (let (($x1516 (and (distinct cell_1_5 cell_2_4 cell_3_3 cell_4_2) true)))
 (let (($x2302 (and (distinct cell_5_1 cell_6_2 cell_7_3 cell_8_4) true)))
 (let (($x279 (and (distinct cell_2_1 cell_3_2 cell_4_3 cell_5_4 cell_6_5 cell_7_6 cell_8_7 cell_9_8) true)))
 (let (($x726 (and (distinct cell_1_2 cell_2_3 cell_3_4 cell_4_5 cell_5_6 cell_6_7 cell_7_8 cell_8_9) true)))
 (let (($x235 (and (distinct cell_1_5 cell_2_6 cell_3_7 cell_4_8) true)))
 (and $x235 $x726 $x279 $x2302 $x1516 $x992 $x2670 $x1952))))))))))
(assert
 (= cell_1_5 9))
(check-sat)
